48 21
52 26
50 30
55 34
54 38
50 40
51 42
55 45
55 50
50 50
41 46
45 42
45 35
40 37
38 33
33 34
29 39
33 44
35 51
30 50
22 53
21 48
21 45
21 36
20 30
26 29
22 22
27 24
30 20
35 16
36 6
26 13
15 5
15 14
16 19
12 17
6 25
11 28
12 38
7 43
9 56
15 56
10 70
17 64
26 59
30 60
31 76
40 66
35 60
40 60
47 66
50 70
55 65
57 72
70 64
62 57
55 57
62 48
67 41
62 35
65 27
62 24
55 20
60 15
66 14
66 8
64 4
59 5
50 4
54 10
50 15
44 13
40 20
36 26
43 26
